1786,1787,2381,2382,2383,2976,2977,2978,2979,2995,3570,3571,3572,3573,3574,3590,3591,4165,4166,4167,4168,4169,4185,4760,4761,4762,4763,4780,5355,5356,5357,5950,5951;5358,5375,5952,5953,5954,5970,5971,6545,6546,6547,6548,6549,6564,6565,6566,7140,7141,7142,7143,7144,7159,7160,7161,7735,7736,7737,7738,8332,8333;3,4,597,598,599,1192,1193,1194,1788;600,601,1195,1196,1789,1790,1791,1792,1806,1807,2384,2385,2386,2401,2402,2403,2980,2981,2996,2997,2998;2982,3575,3576,3577,3592,3593,4170,4171,4172,4173,4186,4187,4188,4764,4765,4766,4767,4768,4781,4782,4783,5359,5360,5361,5362,5363,5376,5377,5378,5955,5956,5957,5972,5973,6550,6551,6552,6567,7145,7162;7146,7147,7739,7740,7741,7756,8334,8335,8336,8929,8930;5,6,7,8,602,603,1197;1198,1793,2387,2388,2389,2983,2984,3578,3579,4174;5958,6553,7148